nNurses = 168;
nHours = 30;
minHours = 4;
maxHours = 15;
maxConsec = 12;
maxPresence = 8;
demand = [33, 28, 32, 34, 31, 27, 31, 26, 29, 25, 30, 32, 29, 29, 29, 33, 35, 36, 39, 41, 41, 42, 39, 40, 44, 45, 45, 40, 36, 38];
